WARNING: for repeatability, setting FPU to use double precision
============================[ Problem Statistics ]=============================
|                                                                             |
|  Number of variables:           100                                         |
|  Number of clauses:             449                                         |
|  Parse time:                   0.00 s                                       |
|  Eliminated clauses:           0.00 Mb                                      |
|  Simplification time:          0.00 s                                       |
|                                                                             |
============================[ Search Statistics ]==============================
| Conflicts |          ORIGINAL         |          LEARNT          | Progress |
|           |    Vars  Clauses Literals |    Limit  Clauses Lit/Cl |          |
===============================================================================
|       100 |      98      447     1353 |      163      100      5 |  0.030 % |
===============================================================================
restarts              : 2
conflicts             : 136            (69530 /sec)
decisions             : 184            (0.00 % random) (94070 /sec)
propagations          : 3036           (1552147 /sec)
conflict literals     : 708            (22.71 % deleted)
Memory used           : 13.00 MB
CPU time              : 0.001956 s

SATISFIABLE
